3	25
495	537	704	670	372	976	169	194	266	688	207	302	896	650	962	235	186	184	26	623	986	942	328	839	712	
780	621	107	414	224	93	463	360	663	118	128	944	421	928	222	952	468	453	962	272	151	8	75	450	585	
906	906	906	
